\ LP format - for model browsing. Use MPS format to capture full model detail.
Minimize
  0.00462962962962963 single_ind_7*x_<=_y
   + 0.00462962962962963 main_ind_(4*x_<=_z,_3*x_<_y)
   + 0 component_ind_4*x_<=_z + 0 component_ind_3*x_<_y
   + 0.00462962962962963 single_ind_5*x_<=_y
   + 0.00462962962962963 single_ind_6*x_<=_z
   + 0.00462962962962963 main_ind_(5*x_<=_3*y,_y_<_3*x)
   + 0 component_ind_5*x_<=_3*y + 0 component_ind_y_<_3*x
   + 0.00462962962962963 main_ind_(3*x_<=_y_+_z,_y_<_3*x)
   + 0 component_ind_3*x_<=_y_+_z + 0 component_ind_y_<_3*x
   + 0.00462962962962963 single_ind_2*x_<=_y
   + 0.00462962962962963 single_ind_x_<=_-y_+_z
   + 0.00462962962962963 main_ind_(3*x_<=_y_+_z,_z_<_2*x)
   + 0 component_ind_3*x_<=_y_+_z + 0 component_ind_z_<_2*x
   + 0.00462962962962963 single_ind_z_<_2*x
   + 0.00462962962962963 single_ind_6*x_<=_y
   + 0.00462962962962963 main_ind_(5*x_<=_z,_2*x_<_y)
   + 0 component_ind_5*x_<=_z + 0 component_ind_2*x_<_y
   + 0.00462962962962963 single_ind_4*x_<=_y
   + 0.00462962962962963 single_ind_7*x_<=_z
   + 0.00462962962962963 single_ind_y_<_2*x
   + 0.00462962962962963 main_ind_(3*x_<=_y_+_z,_y_<_2*x)
   + 0 component_ind_3*x_<=_y_+_z + 0 component_ind_y_<_2*x
   + 0.00462962962962963 single_ind_x_<_-y_+_z
   + 0.00462962962962963 single_ind_3*x_<=_-y_+_z
   + 0.00462962962962963 main_ind_(3*x_<=_y_+_z,_z_<_3*x)
   + 0 component_ind_3*x_<=_y_+_z + 0 component_ind_z_<_3*x
   + 0.00462962962962963 main_ind_(5*x_<=_3*z,_z_<_3*x)
   + 0 component_ind_5*x_<=_3*z + 0 component_ind_z_<_3*x
   + 0.00462962962962963 main_ind_(2*x_<=_z,_-y_+_z_<_x)
   + 0 component_ind_2*x_<=_z + 0 component_ind_-y_+_z_<_x
   + 0.00462962962962963 single_ind_3*x_<=_2*y
   + 0.00462962962962963 single_ind_2*x_<=_-y_+_z
   + 0.00462962962962963 single_ind_x_<_-y_+_z
   + 0.00462962962962963 single_ind_3*x_<=_-y_+_z
   + 0.00462962962962963 single_ind_3*y_<_z
   + 0.00462962962962963 single_ind_x_<=_-3*y_+_z
   + 0.00462962962962963 single_ind_-y_+_z_<_x
   + 0.00462962962962963 main_ind_(x_<=_-3*y_+_3*z,_-y_+_z_<_x)
   + 0 component_ind_x_<=_-3*y_+_3*z + 0 component_ind_-y_+_z_<_x
   + 0.00462962962962963 single_ind_x_<=_3*y_-_z
   + 0.00462962962962963 main_ind_(x_<=_-2*y_+_2*z,_z_<_3*y)
   + 0 component_ind_x_<=_-2*y_+_2*z + 0 component_ind_z_<_3*y
   - 0.00462962962962963 single_ind_7*y_<=_z
   - 0.00462962962962963 single_ind_2*y_<=_3*x
   - 0.00462962962962963 single_ind_3*y_-_z_<=_x
   - 0.00462962962962963 single_ind_x_<=_-3*y_+_z
   - 0.00462962962962963 main_ind_(3*y_-_z_<=_x,_z_<_3*y)
   + 0 component_ind_3*y_-_z_<=_x + 0 component_ind_z_<_3*y
   - 0.00462962962962963 main_ind_(5*y_<=_3*z,_z_<_3*y)
   + 0 component_ind_5*y_<=_3*z + 0 component_ind_z_<_3*y
   - 0.00462962962962963 single_ind_3*y_<=_5*x
   - 0.00462962962962963 main_ind_(2*y_-_z_<=_2*x,_y_<_3*x)
   + 0 component_ind_2*y_-_z_<=_2*x + 0 component_ind_y_<_3*x
   - 0.00462962962962963 single_ind_y_<=_2*x
   - 0.00462962962962963 single_ind_3*y_-_z_<=_3*x
   - 0.00462962962962963 main_ind_(y_<=_7*x,_3*x_<_y)
   + 0 component_ind_y_<=_7*x + 0 component_ind_3*x_<_y
   - 0.00462962962962963 single_ind_3*x_<_y
   - 0.00462962962962963 main_ind_(y_<=_5*x,_2*x_<_z)
   + 0 component_ind_y_<=_5*x + 0 component_ind_2*x_<_z
   - 0.00462962962962963 single_ind_x_<=_-y_+_z
   - 0.00462962962962963 single_ind_y_+_z_<=_3*x
   - 0.00462962962962963 single_ind_z_<_2*x
   - 0.00462962962962963 main_ind_(x_<=_-2*y_+_z,_y_<_2*x)
   + 0 component_ind_x_<=_-2*y_+_z + 0 component_ind_y_<_2*x
   - 0.00462962962962963 single_ind_x_<=_-3*y_+_z
   - 0.00462962962962963 main_ind_(y_<=_6*x,_2*x_<_y)
   + 0 component_ind_y_<=_6*x + 0 component_ind_2*x_<_y
   - 0.00462962962962963 single_ind_2*x_<_y
   - 0.00462962962962963 main_ind_(y_<=_4*x,_3*x_<_z)
   + 0 component_ind_y_<=_4*x + 0 component_ind_3*x_<_z
   - 0.00462962962962963 single_ind_3*x_<=_-y_+_z
   - 0.00462962962962963 single_ind_-y_+_z_<_x
   - 0.00462962962962963 main_ind_(3*x_<=_-y_+_3*z,_-y_+_z_<_x)
   + 0 component_ind_3*x_<=_-y_+_3*z + 0 component_ind_-y_+_z_<_x
   - 0.00462962962962963 single_ind_y_+_z_<=_3*x
   - 0.00462962962962963 main_ind_(2*x_<=_-y_+_2*z,_z_<_3*x)
   + 0 component_ind_2*x_<=_-y_+_2*z + 0 component_ind_z_<_3*x
Subject To
 V1: x - y <= -1
 V2: y - z <= -1
 GC0: single_ind_7*x_<=_y = 1 -> - 7 x + y >= 0
 GC1: single_ind_7*x_<=_y = 0 -> - 7 x + y <= -1
 GC2: component_ind_4*x_<=_z = 1 -> - 4 x + z >= 0
 GC3: component_ind_4*x_<=_z = 0 -> - 4 x + z <= -1
 GC4: component_ind_3*x_<_y = 1 -> - 3 x + y >= 1
 GC5: component_ind_3*x_<_y = 0 -> - 3 x + y <= 0
 GC7: single_ind_5*x_<=_y = 1 -> - 5 x + y >= 0
 GC8: single_ind_5*x_<=_y = 0 -> - 5 x + y <= -1
 GC9: single_ind_6*x_<=_z = 1 -> - 6 x + z >= 0
 GC10: single_ind_6*x_<=_z = 0 -> - 6 x + z <= -1
 GC11: component_ind_5*x_<=_3*y = 1 -> - 5 x + 3 y >= 0
 GC12: component_ind_5*x_<=_3*y = 0 -> - 5 x + 3 y <= -1
 GC13: component_ind_y_<_3*x = 1 -> 3 x - y >= 1
 GC14: component_ind_y_<_3*x = 0 -> 3 x - y <= 0
 GC16: component_ind_3*x_<=_y_+_z = 1 -> - 3 x + y + z >= 0
 GC17: component_ind_3*x_<=_y_+_z = 0 -> - 3 x + y + z <= -1
 GC18: component_ind_y_<_3*x = 1 -> 3 x - y >= 1
 GC19: component_ind_y_<_3*x = 0 -> 3 x - y <= 0
 GC21: single_ind_2*x_<=_y = 1 -> - 2 x + y >= 0
 GC22: single_ind_2*x_<=_y = 0 -> - 2 x + y <= -1
 GC23: single_ind_x_<=_-y_+_z = 1 -> - x - y + z >= 0
 GC24: single_ind_x_<=_-y_+_z = 0 -> - x - y + z <= -1
 GC25: component_ind_3*x_<=_y_+_z = 1 -> - 3 x + y + z >= 0
 GC26: component_ind_3*x_<=_y_+_z = 0 -> - 3 x + y + z <= -1
 GC27: component_ind_z_<_2*x = 1 -> 2 x - z >= 1
 GC28: component_ind_z_<_2*x = 0 -> 2 x - z <= 0
 GC30: single_ind_z_<_2*x = 1 -> 2 x - z >= 1
 GC31: single_ind_z_<_2*x = 0 -> 2 x - z <= 0
 GC32: single_ind_6*x_<=_y = 1 -> - 6 x + y >= 0
 GC33: single_ind_6*x_<=_y = 0 -> - 6 x + y <= -1
 GC34: component_ind_5*x_<=_z = 1 -> - 5 x + z >= 0
 GC35: component_ind_5*x_<=_z = 0 -> - 5 x + z <= -1
 GC36: component_ind_2*x_<_y = 1 -> - 2 x + y >= 1
 GC37: component_ind_2*x_<_y = 0 -> - 2 x + y <= 0
 GC39: single_ind_4*x_<=_y = 1 -> - 4 x + y >= 0
 GC40: single_ind_4*x_<=_y = 0 -> - 4 x + y <= -1
 GC41: single_ind_7*x_<=_z = 1 -> - 7 x + z >= 0
 GC42: single_ind_7*x_<=_z = 0 -> - 7 x + z <= -1
 GC43: single_ind_y_<_2*x = 1 -> 2 x - y >= 1
 GC44: single_ind_y_<_2*x = 0 -> 2 x - y <= 0
 GC45: component_ind_3*x_<=_y_+_z = 1 -> - 3 x + y + z >= 0
 GC46: component_ind_3*x_<=_y_+_z = 0 -> - 3 x + y + z <= -1
 GC47: component_ind_y_<_2*x = 1 -> 2 x - y >= 1
 GC48: component_ind_y_<_2*x = 0 -> 2 x - y <= 0
 GC50: single_ind_x_<_-y_+_z = 1 -> - x - y + z >= 1
 GC51: single_ind_x_<_-y_+_z = 0 -> - x - y + z <= 0
 GC52: single_ind_3*x_<=_-y_+_z = 1 -> - 3 x - y + z >= 0
 GC53: single_ind_3*x_<=_-y_+_z = 0 -> - 3 x - y + z <= -1
 GC54: component_ind_3*x_<=_y_+_z = 1 -> - 3 x + y + z >= 0
 GC55: component_ind_3*x_<=_y_+_z = 0 -> - 3 x + y + z <= -1
 GC56: component_ind_z_<_3*x = 1 -> 3 x - z >= 1
 GC57: component_ind_z_<_3*x = 0 -> 3 x - z <= 0
 GC59: component_ind_5*x_<=_3*z = 1 -> - 5 x + 3 z >= 0
 GC60: component_ind_5*x_<=_3*z = 0 -> - 5 x + 3 z <= -1
 GC61: component_ind_z_<_3*x = 1 -> 3 x - z >= 1
 GC62: component_ind_z_<_3*x = 0 -> 3 x - z <= 0
 GC64: component_ind_2*x_<=_z = 1 -> - 2 x + z >= 0
 GC65: component_ind_2*x_<=_z = 0 -> - 2 x + z <= -1
 GC66: component_ind_-y_+_z_<_x = 1 -> x + y - z >= 1
 GC67: component_ind_-y_+_z_<_x = 0 -> x + y - z <= 0
 GC69: single_ind_3*x_<=_2*y = 1 -> - 3 x + 2 y >= 0
 GC70: single_ind_3*x_<=_2*y = 0 -> - 3 x + 2 y <= -1
 GC71: single_ind_2*x_<=_-y_+_z = 1 -> - 2 x - y + z >= 0
 GC72: single_ind_2*x_<=_-y_+_z = 0 -> - 2 x - y + z <= -1
 GC73: single_ind_x_<_-y_+_z = 1 -> - x - y + z >= 1
 GC74: single_ind_x_<_-y_+_z = 0 -> - x - y + z <= 0
 GC75: single_ind_3*x_<=_-y_+_z = 1 -> - 3 x - y + z >= 0
 GC76: single_ind_3*x_<=_-y_+_z = 0 -> - 3 x - y + z <= -1
 GC77: single_ind_3*y_<_z = 1 -> - 3 y + z >= 1
 GC78: single_ind_3*y_<_z = 0 -> - 3 y + z <= 0
 GC79: single_ind_x_<=_-3*y_+_z = 1 -> - x - 3 y + z >= 0
 GC80: single_ind_x_<=_-3*y_+_z = 0 -> - x - 3 y + z <= -1
 GC81: single_ind_-y_+_z_<_x = 1 -> x + y - z >= 1
 GC82: single_ind_-y_+_z_<_x = 0 -> x + y - z <= 0
 GC83: component_ind_x_<=_-3*y_+_3*z = 1 -> - x - 3 y + 3 z >= 0
 GC84: component_ind_x_<=_-3*y_+_3*z = 0 -> - x - 3 y + 3 z <= -1
 GC85: component_ind_-y_+_z_<_x = 1 -> x + y - z >= 1
 GC86: component_ind_-y_+_z_<_x = 0 -> x + y - z <= 0
 GC88: single_ind_x_<=_3*y_-_z = 1 -> - x + 3 y - z >= 0
 GC89: single_ind_x_<=_3*y_-_z = 0 -> - x + 3 y - z <= -1
 GC90: component_ind_x_<=_-2*y_+_2*z = 1 -> - x - 2 y + 2 z >= 0
 GC91: component_ind_x_<=_-2*y_+_2*z = 0 -> - x - 2 y + 2 z <= -1
 GC92: component_ind_z_<_3*y = 1 -> 3 y - z >= 1
 GC93: component_ind_z_<_3*y = 0 -> 3 y - z <= 0
 GC95: single_ind_7*y_<=_z = 1 -> - 7 y + z >= 0
 GC96: single_ind_7*y_<=_z = 0 -> - 7 y + z <= -1
 GC97: single_ind_2*y_<=_3*x = 1 -> 3 x - 2 y >= 0
 GC98: single_ind_2*y_<=_3*x = 0 -> 3 x - 2 y <= -1
 GC99: single_ind_3*y_-_z_<=_x = 1 -> x - 3 y + z >= 0
 GC100: single_ind_3*y_-_z_<=_x = 0 -> x - 3 y + z <= -1
 GC101: single_ind_x_<=_-3*y_+_z = 1 -> - x - 3 y + z >= 0
 GC102: single_ind_x_<=_-3*y_+_z = 0 -> - x - 3 y + z <= -1
 GC103: component_ind_3*y_-_z_<=_x = 1 -> x - 3 y + z >= 0
 GC104: component_ind_3*y_-_z_<=_x = 0 -> x - 3 y + z <= -1
 GC105: component_ind_z_<_3*y = 1 -> 3 y - z >= 1
 GC106: component_ind_z_<_3*y = 0 -> 3 y - z <= 0
 GC108: component_ind_5*y_<=_3*z = 1 -> - 5 y + 3 z >= 0
 GC109: component_ind_5*y_<=_3*z = 0 -> - 5 y + 3 z <= -1
 GC110: component_ind_z_<_3*y = 1 -> 3 y - z >= 1
 GC111: component_ind_z_<_3*y = 0 -> 3 y - z <= 0
 GC113: single_ind_3*y_<=_5*x = 1 -> 5 x - 3 y >= 0
 GC114: single_ind_3*y_<=_5*x = 0 -> 5 x - 3 y <= -1
 GC115: component_ind_2*y_-_z_<=_2*x = 1 -> 2 x - 2 y + z >= 0
 GC116: component_ind_2*y_-_z_<=_2*x = 0 -> 2 x - 2 y + z <= -1
 GC117: component_ind_y_<_3*x = 1 -> 3 x - y >= 1
 GC118: component_ind_y_<_3*x = 0 -> 3 x - y <= 0
 GC120: single_ind_y_<=_2*x = 1 -> 2 x - y >= 0
 GC121: single_ind_y_<=_2*x = 0 -> 2 x - y <= -1
 GC122: single_ind_3*y_-_z_<=_3*x = 1 -> 3 x - 3 y + z >= 0
 GC123: single_ind_3*y_-_z_<=_3*x = 0 -> 3 x - 3 y + z <= -1
 GC124: component_ind_y_<=_7*x = 1 -> 7 x - y >= 0
 GC125: component_ind_y_<=_7*x = 0 -> 7 x - y <= -1
 GC126: component_ind_3*x_<_y = 1 -> - 3 x + y >= 1
 GC127: component_ind_3*x_<_y = 0 -> - 3 x + y <= 0
 GC129: single_ind_3*x_<_y = 1 -> - 3 x + y >= 1
 GC130: single_ind_3*x_<_y = 0 -> - 3 x + y <= 0
 GC131: component_ind_y_<=_5*x = 1 -> 5 x - y >= 0
 GC132: component_ind_y_<=_5*x = 0 -> 5 x - y <= -1
 GC133: component_ind_2*x_<_z = 1 -> - 2 x + z >= 1
 GC134: component_ind_2*x_<_z = 0 -> - 2 x + z <= 0
 GC136: single_ind_x_<=_-y_+_z = 1 -> - x - y + z >= 0
 GC137: single_ind_x_<=_-y_+_z = 0 -> - x - y + z <= -1
 GC138: single_ind_y_+_z_<=_3*x = 1 -> 3 x - y - z >= 0
 GC139: single_ind_y_+_z_<=_3*x = 0 -> 3 x - y - z <= -1
 GC140: single_ind_z_<_2*x = 1 -> 2 x - z >= 1
 GC141: single_ind_z_<_2*x = 0 -> 2 x - z <= 0
 GC142: component_ind_x_<=_-2*y_+_z = 1 -> - x - 2 y + z >= 0
 GC143: component_ind_x_<=_-2*y_+_z = 0 -> - x - 2 y + z <= -1
 GC144: component_ind_y_<_2*x = 1 -> 2 x - y >= 1
 GC145: component_ind_y_<_2*x = 0 -> 2 x - y <= 0
 GC147: single_ind_x_<=_-3*y_+_z = 1 -> - x - 3 y + z >= 0
 GC148: single_ind_x_<=_-3*y_+_z = 0 -> - x - 3 y + z <= -1
 GC149: component_ind_y_<=_6*x = 1 -> 6 x - y >= 0
 GC150: component_ind_y_<=_6*x = 0 -> 6 x - y <= -1
 GC151: component_ind_2*x_<_y = 1 -> - 2 x + y >= 1
 GC152: component_ind_2*x_<_y = 0 -> - 2 x + y <= 0
 GC154: single_ind_2*x_<_y = 1 -> - 2 x + y >= 1
 GC155: single_ind_2*x_<_y = 0 -> - 2 x + y <= 0
 GC156: component_ind_y_<=_4*x = 1 -> 4 x - y >= 0
 GC157: component_ind_y_<=_4*x = 0 -> 4 x - y <= -1
 GC158: component_ind_3*x_<_z = 1 -> - 3 x + z >= 1
 GC159: component_ind_3*x_<_z = 0 -> - 3 x + z <= 0
 GC161: single_ind_3*x_<=_-y_+_z = 1 -> - 3 x - y + z >= 0
 GC162: single_ind_3*x_<=_-y_+_z = 0 -> - 3 x - y + z <= -1
 GC163: single_ind_-y_+_z_<_x = 1 -> x + y - z >= 1
 GC164: single_ind_-y_+_z_<_x = 0 -> x + y - z <= 0
 GC165: component_ind_3*x_<=_-y_+_3*z = 1 -> - 3 x - y + 3 z >= 0
 GC166: component_ind_3*x_<=_-y_+_3*z = 0 -> - 3 x - y + 3 z <= -1
 GC167: component_ind_-y_+_z_<_x = 1 -> x + y - z >= 1
 GC168: component_ind_-y_+_z_<_x = 0 -> x + y - z <= 0
 GC170: single_ind_y_+_z_<=_3*x = 1 -> 3 x - y - z >= 0
 GC171: single_ind_y_+_z_<=_3*x = 0 -> 3 x - y - z <= -1
 GC172: component_ind_2*x_<=_-y_+_2*z = 1 -> - 2 x - y + 2 z >= 0
 GC173: component_ind_2*x_<=_-y_+_2*z = 0 -> - 2 x - y + 2 z <= -1
 GC174: component_ind_z_<_3*x = 1 -> 3 x - z >= 1
 GC175: component_ind_z_<_3*x = 0 -> 3 x - z <= 0
Bounds
 x >= 1
 y >= 2
 z >= 3
Binaries
 single_ind_7*x_<=_y main_ind_(4*x_<=_z,_3*x_<_y) component_ind_4*x_<=_z
 component_ind_3*x_<_y single_ind_5*x_<=_y single_ind_6*x_<=_z
 main_ind_(5*x_<=_3*y,_y_<_3*x) component_ind_5*x_<=_3*y
 component_ind_y_<_3*x main_ind_(3*x_<=_y_+_z,_y_<_3*x)
 component_ind_3*x_<=_y_+_z component_ind_y_<_3*x single_ind_2*x_<=_y
 single_ind_x_<=_-y_+_z main_ind_(3*x_<=_y_+_z,_z_<_2*x)
 component_ind_3*x_<=_y_+_z component_ind_z_<_2*x single_ind_z_<_2*x
 single_ind_6*x_<=_y main_ind_(5*x_<=_z,_2*x_<_y) component_ind_5*x_<=_z
 component_ind_2*x_<_y single_ind_4*x_<=_y single_ind_7*x_<=_z
 single_ind_y_<_2*x main_ind_(3*x_<=_y_+_z,_y_<_2*x)
 component_ind_3*x_<=_y_+_z component_ind_y_<_2*x single_ind_x_<_-y_+_z
 single_ind_3*x_<=_-y_+_z main_ind_(3*x_<=_y_+_z,_z_<_3*x)
 component_ind_3*x_<=_y_+_z component_ind_z_<_3*x
 main_ind_(5*x_<=_3*z,_z_<_3*x) component_ind_5*x_<=_3*z
 component_ind_z_<_3*x main_ind_(2*x_<=_z,_-y_+_z_<_x)
 component_ind_2*x_<=_z component_ind_-y_+_z_<_x single_ind_3*x_<=_2*y
 single_ind_2*x_<=_-y_+_z single_ind_x_<_-y_+_z single_ind_3*x_<=_-y_+_z
 single_ind_3*y_<_z single_ind_x_<=_-3*y_+_z single_ind_-y_+_z_<_x
 main_ind_(x_<=_-3*y_+_3*z,_-y_+_z_<_x) component_ind_x_<=_-3*y_+_3*z
 component_ind_-y_+_z_<_x single_ind_x_<=_3*y_-_z
 main_ind_(x_<=_-2*y_+_2*z,_z_<_3*y) component_ind_x_<=_-2*y_+_2*z
 component_ind_z_<_3*y single_ind_7*y_<=_z single_ind_2*y_<=_3*x
 single_ind_3*y_-_z_<=_x single_ind_x_<=_-3*y_+_z
 main_ind_(3*y_-_z_<=_x,_z_<_3*y) component_ind_3*y_-_z_<=_x
 component_ind_z_<_3*y main_ind_(5*y_<=_3*z,_z_<_3*y)
 component_ind_5*y_<=_3*z component_ind_z_<_3*y single_ind_3*y_<=_5*x
 main_ind_(2*y_-_z_<=_2*x,_y_<_3*x) component_ind_2*y_-_z_<=_2*x
 component_ind_y_<_3*x single_ind_y_<=_2*x single_ind_3*y_-_z_<=_3*x
 main_ind_(y_<=_7*x,_3*x_<_y) component_ind_y_<=_7*x component_ind_3*x_<_y
 single_ind_3*x_<_y main_ind_(y_<=_5*x,_2*x_<_z) component_ind_y_<=_5*x
 component_ind_2*x_<_z single_ind_x_<=_-y_+_z single_ind_y_+_z_<=_3*x
 single_ind_z_<_2*x main_ind_(x_<=_-2*y_+_z,_y_<_2*x)
 component_ind_x_<=_-2*y_+_z component_ind_y_<_2*x single_ind_x_<=_-3*y_+_z
 main_ind_(y_<=_6*x,_2*x_<_y) component_ind_y_<=_6*x component_ind_2*x_<_y
 single_ind_2*x_<_y main_ind_(y_<=_4*x,_3*x_<_z) component_ind_y_<=_4*x
 component_ind_3*x_<_z single_ind_3*x_<=_-y_+_z single_ind_-y_+_z_<_x
 main_ind_(3*x_<=_-y_+_3*z,_-y_+_z_<_x) component_ind_3*x_<=_-y_+_3*z
 component_ind_-y_+_z_<_x single_ind_y_+_z_<=_3*x
 main_ind_(2*x_<=_-y_+_2*z,_z_<_3*x) component_ind_2*x_<=_-y_+_2*z
 component_ind_z_<_3*x
Generals
 x y z
General Constraints
 andconstr_(4*x_<=_z,_3*x_<_y): main_ind_(4*x_<=_z,_3*x_<_y) = AND (
   component_ind_4*x_<=_z , component_ind_3*x_<_y )
 andconstr_(5*x_<=_3*y,_y_<_3*x): main_ind_(5*x_<=_3*y,_y_<_3*x) = AND (
   component_ind_5*x_<=_3*y , component_ind_y_<_3*x )
 andconstr_(3*x_<=_y_+_z,_y_<_3*x):
   main_ind_(3*x_<=_y_+_z,_y_<_3*x) = AND ( component_ind_3*x_<=_y_+_z ,
   component_ind_y_<_3*x )
 andconstr_(3*x_<=_y_+_z,_z_<_2*x):
   main_ind_(3*x_<=_y_+_z,_z_<_2*x) = AND ( component_ind_3*x_<=_y_+_z ,
   component_ind_z_<_2*x )
 andconstr_(5*x_<=_z,_2*x_<_y): main_ind_(5*x_<=_z,_2*x_<_y) = AND (
   component_ind_5*x_<=_z , component_ind_2*x_<_y )
 andconstr_(3*x_<=_y_+_z,_y_<_2*x):
   main_ind_(3*x_<=_y_+_z,_y_<_2*x) = AND ( component_ind_3*x_<=_y_+_z ,
   component_ind_y_<_2*x )
 andconstr_(3*x_<=_y_+_z,_z_<_3*x):
   main_ind_(3*x_<=_y_+_z,_z_<_3*x) = AND ( component_ind_3*x_<=_y_+_z ,
   component_ind_z_<_3*x )
 andconstr_(5*x_<=_3*z,_z_<_3*x): main_ind_(5*x_<=_3*z,_z_<_3*x) = AND (
   component_ind_5*x_<=_3*z , component_ind_z_<_3*x )
 andconstr_(2*x_<=_z,_-y_+_z_<_x): main_ind_(2*x_<=_z,_-y_+_z_<_x) = AND (
   component_ind_2*x_<=_z , component_ind_-y_+_z_<_x )
 andconstr_(x_<=_-3*y_+_3*z,_-y_+_z_<_x):
   main_ind_(x_<=_-3*y_+_3*z,_-y_+_z_<_x) = AND (
   component_ind_x_<=_-3*y_+_3*z , component_ind_-y_+_z_<_x )
 andconstr_(x_<=_-2*y_+_2*z,_z_<_3*y):
   main_ind_(x_<=_-2*y_+_2*z,_z_<_3*y) = AND (
   component_ind_x_<=_-2*y_+_2*z , component_ind_z_<_3*y )
 andconstr_(3*y_-_z_<=_x,_z_<_3*y):
   main_ind_(3*y_-_z_<=_x,_z_<_3*y) = AND ( component_ind_3*y_-_z_<=_x ,
   component_ind_z_<_3*y )
 andconstr_(5*y_<=_3*z,_z_<_3*y): main_ind_(5*y_<=_3*z,_z_<_3*y) = AND (
   component_ind_5*y_<=_3*z , component_ind_z_<_3*y )
 andconstr_(2*y_-_z_<=_2*x,_y_<_3*x):
   main_ind_(2*y_-_z_<=_2*x,_y_<_3*x) = AND (
   component_ind_2*y_-_z_<=_2*x , component_ind_y_<_3*x )
 andconstr_(y_<=_7*x,_3*x_<_y): main_ind_(y_<=_7*x,_3*x_<_y) = AND (
   component_ind_y_<=_7*x , component_ind_3*x_<_y )
 andconstr_(y_<=_5*x,_2*x_<_z): main_ind_(y_<=_5*x,_2*x_<_z) = AND (
   component_ind_y_<=_5*x , component_ind_2*x_<_z )
 andconstr_(x_<=_-2*y_+_z,_y_<_2*x):
   main_ind_(x_<=_-2*y_+_z,_y_<_2*x) = AND ( component_ind_x_<=_-2*y_+_z ,
   component_ind_y_<_2*x )
 andconstr_(y_<=_6*x,_2*x_<_y): main_ind_(y_<=_6*x,_2*x_<_y) = AND (
   component_ind_y_<=_6*x , component_ind_2*x_<_y )
 andconstr_(y_<=_4*x,_3*x_<_z): main_ind_(y_<=_4*x,_3*x_<_z) = AND (
   component_ind_y_<=_4*x , component_ind_3*x_<_z )
 andconstr_(3*x_<=_-y_+_3*z,_-y_+_z_<_x):
   main_ind_(3*x_<=_-y_+_3*z,_-y_+_z_<_x) = AND (
   component_ind_3*x_<=_-y_+_3*z , component_ind_-y_+_z_<_x )
 andconstr_(2*x_<=_-y_+_2*z,_z_<_3*x):
   main_ind_(2*x_<=_-y_+_2*z,_z_<_3*x) = AND (
   component_ind_2*x_<=_-y_+_2*z , component_ind_z_<_3*x )
End
